42
1 0 10
2 0 13
2 1 7
3 0 4
3 1 5
3 2 3
4 0 3
4 1 18
4 2 7
4 3 15
5 0 1
5 1 7
5 2 13
5 3 16
5 4 13
6 0 13
6 1 13
6 2 15
6 3 4
6 4 6
6 5 4
7 0 13
7 1 1
7 2 16
7 3 8
7 4 11
7 5 18
7 6 12
8 0 12
8 1 5
8 2 17
8 3 3
8 4 6
8 5 14
8 6 7
8 7 17
9 0 15
9 1 9
9 2 2
9 3 10
9 4 13
9 5 13
9 6 6
9 7 12
9 8 8
10 0 14
10 1 12
10 2 11
10 3 12
10 4 11
10 5 3
10 6 17
10 7 17
10 8 6
10 9 3
11 0 12
11 1 7
11 2 17
11 3 16
11 4 2
11 5 1
11 6 13
11 7 10
11 8 18
11 9 16
11 10 5
12 0 16
12 1 17
12 2 17
12 3 14
12 4 4
12 5 6
12 6 14
12 7 14
12 8 3
12 9 3
12 10 1
12 11 13
13 0 6
13 1 4
13 2 8
13 3 14
13 4 18
13 5 8
13 6 9
13 7 3
13 8 6
13 9 17
13 10 15
13 11 14
13 12 11
14 0 8
14 1 10
14 2 5
14 3 2
14 4 1
14 5 9
14 6 7
14 7 13
14 8 14
14 9 4
14 10 11
14 11 1
14 12 5
14 13 17
15 0 17
15 1 6
15 2 9
15 3 18
15 4 8
15 5 13
15 6 9
15 7 16
15 8 10
15 9 7
15 10 18
15 11 17
15 12 9
15 13 11
15 14 16
16 0 7
16 1 12
16 2 14
16 3 6
16 4 12
16 5 2
16 6 7
16 7 1
16 8 15
16 9 7
16 10 17
16 11 9
16 12 16
16 13 2
16 14 3
16 15 7
17 0 18
17 1 6
17 2 16
17 3 10
17 4 14
17 5 2
17 6 10
17 7 10
17 8 14
17 9 17
17 10 6
17 11 17
17 12 10
17 13 14
17 14 4
17 15 15
17 16 5
18 0 4
18 1 7
18 2 3
18 3 10
18 4 13
18 5 17
18 6 1
18 7 5
18 8 13
18 9 16
18 10 12
18 11 4
18 12 10
18 13 9
18 14 3
18 15 2
18 16 2
18 17 6
19 0 6
19 1 18
19 2 13
19 3 4
19 4 3
19 5 5
19 6 2
19 7 2
19 8 4
19 9 4
19 10 6
19 11 14
19 12 3
19 13 15
19 14 15
19 15 16
19 16 13
19 17 4
19 18 4
20 0 4
20 1 6
20 2 15
20 3 5
20 4 8
20 5 16
20 6 7
20 7 16
20 8 6
20 9 7
20 10 1
20 11 14
20 12 9
20 13 10
20 14 13
20 15 1
20 16 3
20 17 12
20 18 14
20 19 5
21 0 13
21 1 3
21 2 6
21 3 3
21 4 4
21 5 13
21 6 8
21 7 6
21 8 5
21 9 13
21 10 8
21 11 7
21 12 10
21 13 15
21 14 11
21 15 11
21 16 4
21 17 8
21 18 14
21 19 6
21 20 7
22 0 13
22 1 4
22 2 5
22 3 3
22 4 4
22 5 6
22 6 5
22 7 15
22 8 6
22 9 3
22 10 7
22 11 15
22 12 3
22 13 3
22 14 6
22 15 5
22 16 12
22 17 17
22 18 11
22 19 7
22 20 13
22 21 2
23 0 1
23 1 11
23 2 16
23 3 13
23 4 13
23 5 9
23 6 18
23 7 5
23 8 7
23 9 5
23 10 8
23 11 16
23 12 6
23 13 15
23 14 9
23 15 18
23 16 7
23 17 18
23 18 4
23 19 2
23 20 10
23 21 17
23 22 6
24 0 14
24 1 18
24 2 6
24 3 1
24 4 7
24 5 2
24 6 17
24 7 10
24 8 6
24 9 16
24 10 5
24 11 17
24 12 9
24 13 17
24 14 10
24 15 3
24 16 2
24 17 2
24 18 7
24 19 18
24 20 8
24 21 5
24 22 17
24 23 2
25 0 12
25 1 18
25 2 13
25 3 14
25 4 17
25 5 16
25 6 13
25 7 18
25 8 8
25 9 12
25 10 13
25 11 7
25 12 12
25 13 16
25 14 15
25 15 1
25 16 12
25 17 17
25 18 16
25 19 2
25 20 12
25 21 2
25 22 17
25 23 5
25 24 4
26 0 1
26 1 1
26 2 13
26 3 8
26 4 10
26 5 5
26 6 2
26 7 2
26 8 1
26 9 13
26 10 9
26 11 1
26 12 3
26 13 17
26 14 11
26 15 11
26 16 2
26 17 18
26 18 9
26 19 6
26 20 15
26 21 2
26 22 13
26 23 1
26 24 8
26 25 9
27 0 15
27 1 10
27 2 13
27 3 5
27 4 17
27 5 7
27 6 10
27 7 17
27 8 9
27 9 13
27 10 9
27 11 14
27 12 11
27 13 6
27 14 10
27 15 7
27 16 9
27 17 18
27 18 6
27 19 14
27 20 4
27 21 3
27 22 18
27 23 16
27 24 18
27 25 14
27 26 11
28 0 4
28 1 7
28 2 5
28 3 7
28 4 17
28 5 13
28 6 2
28 7 4
28 8 14
28 9 16
28 10 8
28 11 17
28 12 16
28 13 7
28 14 11
28 15 1
28 16 16
28 17 7
28 18 11
28 19 15
28 20 1
28 21 7
28 22 9
28 23 7
28 24 17
28 25 4
28 26 10
28 27 8
29 0 8
29 1 1
29 2 11
29 3 4
29 4 3
29 5 15
29 6 15
29 7 3
29 8 18
29 9 17
29 10 6
29 11 17
29 12 4
29 13 5
29 14 4
29 15 11
29 16 6
29 17 6
29 18 3
29 19 2
29 20 15
29 21 7
29 22 11
29 23 13
29 24 16
29 25 11
29 26 15
29 27 15
29 28 15
30 0 16
30 1 15
30 2 13
30 3 8
30 4 17
30 5 10
30 6 11
30 7 14
30 8 9
30 9 7
30 10 3
30 11 8
30 12 17
30 13 17
30 14 10
30 15 18
30 16 13
30 17 16
30 18 1
30 19 5
30 20 13
30 21 4
30 22 12
30 23 7
30 24 11
30 25 10
30 26 14
30 27 9
30 28 8
30 29 16
31 0 7
31 1 10
31 2 3
31 3 3
31 4 17
31 5 5
31 6 16
31 7 16
31 8 7
31 9 11
31 10 1
31 11 10
31 12 13
31 13 9
31 14 7
31 15 3
31 16 13
31 17 12
31 18 14
31 19 1
31 20 10
31 21 12
31 22 1
31 23 10
31 24 17
31 25 9
31 26 12
31 27 8
31 28 3
31 29 11
31 30 6
32 0 3
32 1 13
32 2 5
32 3 7
32 4 8
32 5 13
32 6 5
32 7 10
32 8 4
32 9 10
32 10 5
32 11 4
32 12 8
32 13 6
32 14 11
32 15 6
32 16 6
32 17 18
32 18 10
32 19 8
32 20 1
32 21 7
32 22 3
32 23 14
32 24 2
32 25 7
32 26 2
32 27 8
32 28 2
32 29 7
32 30 11
32 31 15
33 0 4
33 1 17
33 2 7
33 3 10
33 4 18
33 5 13
33 6 14
33 7 11
33 8 1
33 9 18
33 10 11
33 11 4
33 12 9
33 13 11
33 14 1
33 15 6
33 16 7
33 17 2
33 18 8
33 19 3
33 20 14
33 21 1
33 22 15
33 23 13
33 24 2
33 25 6
33 26 7
33 27 14
33 28 10
33 29 12
33 30 7
33 31 1
33 32 12
34 0 10
34 1 8
34 2 11
34 3 5
34 4 9
34 5 5
34 6 13
34 7 10
34 8 3
34 9 13
34 10 9
34 11 16
34 12 18
34 13 10
34 14 15
34 15 15
34 16 18
34 17 7
34 18 5
34 19 3
34 20 10
34 21 13
34 22 16
34 23 2
34 24 8
34 25 17
34 26 17
34 27 15
34 28 15
34 29 15
34 30 7
34 31 4
34 32 14
34 33 9
35 0 7
35 1 7
35 2 1
35 3 13
35 4 16
35 5 2
35 6 17
35 7 6
35 8 11
35 9 9
35 10 2
35 11 16
35 12 15
35 13 18
35 14 5
35 15 17
35 16 11
35 17 4
35 18 4
35 19 10
35 20 18
35 21 7
35 22 9
35 23 18
35 24 11
35 25 9
35 26 16
35 27 10
35 28 4
35 29 2
35 30 7
35 31 4
35 32 17
35 33 1
35 34 6
36 0 7
36 1 4
36 2 2
36 3 18
36 4 11
36 5 7
36 6 5
36 7 12
36 8 16
36 9 13
36 10 4
36 11 13
36 12 8
36 13 4
36 14 2
36 15 4
36 16 8
36 17 4
36 18 16
36 19 2
36 20 8
36 21 6
36 22 9
36 23 11
36 24 9
36 25 10
36 26 1
36 27 6
36 28 1
36 29 11
36 30 13
36 31 4
36 32 8
36 33 13
36 34 6
36 35 13
37 0 13
37 1 2
37 2 1
37 3 1
37 4 9
37 5 14
37 6 16
37 7 6
37 8 17
37 9 3
37 10 8
37 11 7
37 12 7
37 13 17
37 14 10
37 15 4
37 16 2
37 17 2
37 18 10
37 19 7
37 20 14
37 21 11
37 22 9
37 23 7
37 24 7
37 25 2
37 26 16
37 27 16
37 28 11
37 29 12
37 30 2
37 31 10
37 32 12
37 33 16
37 34 2
37 35 18
37 36 18
38 0 14
38 1 13
38 2 12
38 3 12
38 4 18
38 5 6
38 6 14
38 7 2
38 8 2
38 9 5
38 10 16
38 11 14
38 12 4
38 13 3
38 14 13
38 15 18
38 16 8
38 17 10
38 18 15
38 19 11
38 20 1
38 21 3
38 22 12
38 23 15
38 24 8
38 25 5
38 26 1
38 27 11
38 28 5
38 29 18
38 30 4
38 31 5
38 32 16
38 33 15
38 34 11
38 35 15
38 36 7
38 37 12
39 0 5
39 1 10
39 2 3
39 3 3
39 4 16
39 5 10
39 6 16
39 7 16
39 8 16
39 9 5
39 10 16
39 11 12
39 12 2
39 13 8
39 14 9
39 15 7
39 16 10
39 17 18
39 18 4
39 19 10
39 20 4
39 21 1
39 22 3
39 23 17
39 24 18
39 25 16
39 26 2
39 27 17
39 28 18
39 29 18
39 30 17
39 31 2
39 32 9
39 33 15
39 34 13
39 35 15
39 36 8
39 37 14
39 38 12
40 0 5
40 1 13
40 2 10
40 3 15
40 4 3
40 5 7
40 6 16
40 7 12
40 8 15
40 9 18
40 10 7
40 11 10
40 12 11
40 13 5
40 14 15
40 15 4
40 16 15
40 17 17
40 18 3
40 19 17
40 20 8
40 21 6
40 22 6
40 23 14
40 24 6
40 25 1
40 26 6
40 27 16
40 28 6
40 29 14
40 30 6
40 31 8
40 32 5
40 33 1
40 34 11
40 35 1
40 36 15
40 37 6
40 38 10
40 39 12
41 0 7
41 1 6
41 2 13
41 3 18
41 4 3
41 5 7
41 6 7
41 7 9
41 8 8
41 9 13
41 10 7
41 11 3
41 12 13
41 13 6
41 14 8
41 15 3
41 16 3
41 17 10
41 18 1
41 19 6
41 20 6
41 21 12
41 22 15
41 23 16
41 24 6
41 25 10
41 26 6
41 27 18
41 28 15
41 29 14
41 30 15
41 31 2
41 32 13
41 33 14
41 34 3
41 35 16
41 36 5
41 37 1
41 38 17
41 39 8
41 40 9
